(set-logic ALL)
(declare-fun seed0_key2 () String)
(declare-fun seed0_value2 () String)
(assert (and (or (and (and (and (and (and (and (and (and (and (and (and (and (and (and (and (and (and (and (and (and (not (= (ite (= (str.at (str.substr seed0_value2 1 (- (str.len seed0_value2) 1)) 0) "\u{9}") 1 0) 0)) (= (ite (= (str.at (str.substr seed0_value2 1 (- (str.len seed0_value2) 1)) 0) " ") 1 0) 0)) (= (ite (= (str.len (str.substr seed0_value2 1 (- (str.len seed0_value2) 1))) 0) 1 0) 0)) (not (= (ite (= (str.at seed0_value2 0) "\u{c}") 1 0) 0))) (= (ite (= (str.at seed0_value2 0) "\u{b}") 1 0) 0)) (= (ite (= (str.at seed0_value2 0) "\u{d}") 1 0) 0)) (= (ite (= (str.at seed0_value2 0) "\u{a}") 1 0) 0)) (= (ite (= (str.at seed0_value2 0) "\u{9}") 1 0) 0)) (= (ite (= (str.at seed0_value2 0) " ") 1 0) 0)) (= (ite (= (str.len seed0_value2) 0) 1 0) 0)) (not (= (ite (= (str.indexof seed0_value2 "=" 0) (- 1)) 1 0) 0))) (= (ite (not (= (str.indexof seed0_value2 "=" 0) (- 1))) 1 0) 0)) (= (ite (str.contains seed0_value2 ",") 1 0) 0)) (= (ite (= (str.len seed0_value2) 0) 1 0) 0)) (not (= (ite (= seed0_key2 "cache-control") 1 0) 0))) (not (= (ite (= seed0_key2 "cache-control") 1 0) 0))) (>= 1 0)) (>= (- (str.len seed0_value2) 1) 0)) (>= 1 0)) (>= (- (str.len seed0_value2) 1) 0)) (>= 1 0)) (and (str.<= (str.++ seed0_value2 "ZmpqDlPEF3ASru81v0f") (str.++ seed0_value2 "JAd6v4mD5pOF0CKV")) (str.prefixof (str.++ seed0_value2 "Xot0UL15kW6imnDV8b") (str.++ seed0_value2 "kF9X")))) (or (>= (- (str.len seed0_value2) 1) 0) (and (str.suffixof (str.++ seed0_value2 "ToflRkWbE2njryQV1z") (str.++ seed0_key2 "rmVqAUQ8p")) (str.<= (str.++ seed0_value2 "50BCm2i1lAvJw6Eq") (str.++ seed0_key2 "3YNdqbEsBOGSC7HAtw5"))))))
(check-sat)
(exit)